\ENCODING=ISO-8859-1
\Problem name: 

Minimize
 obj1: x23 + x24 + t
Subject To
 b_0:  x23 + 2 x24 + t >= 10.4
 b_1:  x23 + 2 x24 + t >= 10.4
 b_2:  x23 + 2 x24 + t >= 10.4
 b_3:  x23 + 2 x24 + t >= 10.4
 b_4:  x23 + 2 x24 + t >= 10.4
 b_5:  x23 + 2 x24 + t >= 10.4
 b_6:  x23 + 2 x24 + t >= 10.4
 b_7:  x23 + 2 x24 + t >= 10.4
 b_8:  x23 + 2 x24 + t >= 10.4
 b_9:  x23 + 2 x24 + t >= 10.4
 b_10: x23 + 2 x24 + t >= 10.4
 b_11: x23 + 2 x24 + t >= 10.4
 b_12: x23 + 2 x24 + t >= 10.4
 b_13: x23 + 2 x24 + t >= 10.4
 b_14: x23 + 2 x24 + t >= 10.4
 b_15: x23 + 2 x24 + t >= 10.4
 b_16: x23 + 2 x24 + t >= 10.4
 b_17: x23 + 2 x24 + t >= 10.4
 b_18: x23 + 2 x24 + t >= 10.4
 b_19: x23 + 2 x24 + t >= 10.4
 b_20: x23 + 2 x24 + t >= 10.4
 b_21: x23 + 2 x24 + t >= 10.4
 b_22: x23 + 2 x24 + t >= 10.4
 b_23: x23 + 2 x24 + t >= 10.4
 b_24: x23 + 2 x24 + t >= 10.4
 b_25: x23 + 2 x24 + t >= 10.4
 b_26: x23 + 2 x24 + t >= 10.4
 b_27: x23 + 2 x24 + t >= 10.4
 b_28: x23 + 2 x24 + t >= 10.4
 b_29: x23 + 2 x24 + t >= 10.4
 b_30: x23 + 2 x24 + t >= 10.4
 b_31: x23 + 2 x24 + t >= 10.4
 b_32: x23 + 2 x24 + t >= 10.4
 b_33: x23 + 2 x24 + t >= 10.4
 b_34: x23 + 2 x24 + t >= 10.4
Bounds
 0 <= x23 <= 1
 0 <= x24 <= 1
Binaries
 x23  x24 
End
